WARNING: for repeatability, setting FPU to use double precision
============================[ Problem Statistics ]=============================
|                                                                             |
|  Number of variables:         27899                                         |
|  Number of clauses:          609811                                         |
|  Parse time:                   0.19 s                                       |
|  Eliminated clauses:           0.01 Mb                                      |
|  Simplification time:          0.18 s                                       |
|                                                                             |
============================[ Search Statistics ]==============================
| Conflicts |          ORIGINAL         |          LEARNT          | Progress |
|           |    Vars  Clauses Literals |    Limit  Clauses Lit/Cl |          |
===============================================================================
|       100 |    3737    44600    97669 |    16353      100    140 | 83.383 % |
|       250 |    3737    44600    97669 |    17988      250    199 | 83.383 % |
|       475 |    3737    44600    97669 |    19787      475    205 | 83.383 % |
|       812 |    3737    44600    97669 |    21766      812    203 | 83.383 % |
|      1318 |    3737    44600    97669 |    23942     1318    217 | 83.383 % |
===============================================================================
restarts              : 9
conflicts             : 1340           (3130 /sec)
decisions             : 11422          (0.00 % random) (26678 /sec)
propagations          : 365672         (854096 /sec)
conflict literals     : 289769         (0.51 % deleted)
Memory used           : 60.00 MB
CPU time              : 0.428139 s

SATISFIABLE
